NAME: tsp15_13
COMMENT: 15-tsp problem (Padberg/Rinaldi)
TYPE: TSP
DIMENSION: 15
EDGE_WEIGHT_TYPE : EUC_2D
NODE_COORD_SECTION
1 8 17
2 17 34
3 39 16
4 5 16
5 26 13
6 12 13
7 4 19
8 23 8
9 26 38
10 14 30
11 15 2
12 33 6
13 0 10
14 36 5
15 27 31
